c File: instances/20_0.35_3.col
c
c Description: Random graph of size 20 vertices and P(0.35) of edges between any two vertices.
p col 20 190
e 1 6
e 1 17
e 1 19
e 2 6
e 2 7
e 2 8
e 2 12
e 2 15
e 2 16
e 2 17
e 3 7
e 3 9
e 3 13
e 3 14
e 3 16
e 3 17
e 3 18
e 3 19
e 3 20
e 4 5
e 4 7
e 4 11
e 4 12
e 4 13
e 4 14
e 4 17
e 4 18
e 4 20
e 5 7
e 5 11
e 5 12
e 5 14
e 5 16
e 5 18
e 5 19
e 5 20
e 6 7
e 6 11
e 6 13
e 6 14
e 7 10
e 7 14
e 7 15
e 7 16
e 7 17
e 7 20
e 8 9
e 8 15
e 8 16
e 8 18
e 9 14
e 9 16
e 9 17
e 10 13
e 10 15
e 10 16
e 10 18
e 10 20
e 11 13
e 11 18
e 12 13
e 12 15
e 12 18
e 13 17
e 13 18
e 15 18
e 16 20
e 17 19
e 19 20